NAME: tsp5_4
COMMENT: 5-tsp problem (Padberg/Rinaldi)
TYPE: TSP
DIMENSION: 5
EDGE_WEIGHT_TYPE : EUC_2D
NODE_COORD_SECTION
1.00 18.66 18.61
2.00 33.61 23.77
3.00 38.72 35.94
4.00 10.98 24.42
5.00 33.70 37.23
